c Property 1: State transition safety check
c Verifies that initial state can reach a valid configuration
c This formula encodes state consistency requirements
p cnf 5 9
1 2 0
-1 3 0
2 -3 0
-2 4 0
3 4 5 0
-4 -5 0
1 -2 5 0
-1 2 0
3 -5 0